# Declare Parameters
param E := 40;
param P := 24;
param S := 13;
param M := 31;

param D: 1 2 3 4 5 6 7 8 9 10 11 12 13 14 15 16 17 18 19 20 21 22 23 24 25 26 27 28 29 30 31 :=
    1 29 20 21 29 20 21 17 29 20 21 17 18 17 18 29 20 21 17 18 29 20 29 20 21 17 18 17 18 29 20 29
    2 24 20 18 24 20 18 18 24 20 18 18 15 18 15 24 20 18 18 15 24 20 24 20 18 18 15 18 15 24 20 24
    3 25 21 20 25 21 20 17 25 21 20 17 20 17 20 25 21 20 17 20 25 21 25 21 20 17 20 17 20 25 21 25
    4 24 22 20 24 22 20 18 24 22 20 18 18 18 18 24 22 20 18 18 24 22 24 22 20 18 18 18 18 24 22 24
    5 24 19 22 24 19 22 20 24 19 22 20 16 20 16 24 19 22 20 16 24 19 24 19 22 20 16 20 16 24 19 24
    6 24 18 19 24 18 19 17 24 18 19 17 20 17 20 24 18 19 17 20 24 18 24 18 19 17 20 17 20 24 18 24
    7 17 12 13 17 12 13 12 17 12 13 12 12 12 12 17 12 13 12 12 17 12 17 12 13 12 12 12 12 17 12 17
    8 13 14 11 13 14 11 12 13 14 11 12 11 12 11 13 14 11 12 11 13 14 13 14 11 12 11 12 11 13 14 13
    9 17 14 14 17 14 14 11 17 14 14 11 13 11 13 17 14 14 11 13 17 14 17 14 14 11 13 11 13 17 14 17
    10 23 18 17 23 18 17 15 23 18 17 15 17 15 17 23 18 17 15 17 23 18 23 18 17 15 17 15 17 23 18 23
    11 21 20 20 21 20 20 18 21 20 20 18 17 18 17 21 20 20 18 17 21 20 21 20 20 18 17 18 17 21 20 21
    12 23 20 21 23 20 21 17 23 20 21 17 18 17 18 23 20 21 17 18 23 20 23 20 21 17 18 17 18 23 20 23
    13 21 18 18 21 18 18 16 21 18 18 16 16 16 16 21 18 18 16 16 21 18 21 18 18 16 16 16 16 21 18 21
    14 18 20 18 18 20 18 17 18 20 18 17 18 17 18 18 20 18 17 18 18 20 18 20 18 17 18 17 18 18 20 18
    15 20 17 17 20 17 17 14 20 17 17 14 17 14 17 20 17 17 14 17 20 17 20 17 17 14 17 14 17 20 17 20
    16 20 17 15 20 17 15 15 20 17 15 15 13 15 13 20 17 15 15 13 20 17 20 17 15 15 13 15 13 20 17 20
    17 16 11 15 16 11 15 13 16 11 15 13 14 13 14 16 11 15 13 14 16 11 16 11 15 13 14 13 14 16 11 16
    18 11 11 13 11 11 13 11 11 11 13 11 10 11 10 11 11 13 11 10 11 11 11 11 13 11 10 11 10 11 11 11
    19 10 8 8 10 8 8 9 10 8 8 9 6 9 6 10 8 8 9 6 10 8 10 8 8 9 6 9 6 10 8 10
    20 8 8 6 8 8 6 7 8 8 6 7 6 7 6 8 8 6 7 6 8 8 8 8 6 7 6 7 6 8 8 8
    21 8 9 6 8 9 6 8 8 9 6 8 6 8 6 8 9 6 8 6 8 9 8 9 6 8 6 8 6 8 9 8
    22 8 8 8 8 8 8 7 8 8 8 7 5 7 5 8 8 8 7 5 8 8 8 8 8 7 5 7 5 8 8 8
    23 9 8 7 9 8 7 7 9 8 7 7 6 7 6 9 8 7 7 6 9 8 9 8 7 7 6 7 6 9 8 9
    24 8 7 6 8 7 6 6 8 7 6 6 6 6 6 8 7 6 6 6 8 7 8 7 6 6 6 6 6 8 7 8;

# Declare Sets
set OMEGA1  := 1 2 3 4 5 7 8 9 10 11 12;
set OMEGA2  := 1 2 3 4 5 7 8 9 10 11 12;
set OMEGA3  := 1 2 3 4 5 7 8 9 10 11 12;
set OMEGA4  := 1 2 3 4 5 7 8 9 10 11 12;
set OMEGA5  := 1 2 3 4 5 7 8 9 10 11 12;
set OMEGA6  := 1 2 3 4 5 7 8 9 10 12;
set OMEGA7  := 2 3 4 5 8 9 10;
set OMEGA8  := 3 4 9 10 11 13;
set OMEGA9  := 4 7 10 11 12 13;
set OMEGA10 := 1 2 6 7 8 11 12 13;
set OMEGA11 := 1 2 3 6 7 8 9 11 12 13;
set OMEGA12 := 1 2 3 4 6 7 8 9 10 11 12 13;
set OMEGA13 := 1 2 3 4 6 7 8 9 10 11 12 13;
set OMEGA14 := 1 2 3 4 6 7 8 9 10 11 12 13;
set OMEGA15 := 1 2 3 4 6 7 8 9 10 11 12 13;
set OMEGA16 := 1 2 3 4 6 7 8 9 10 12;
set OMEGA17 := 1 2 3 4 6 7 8 9 10;
set OMEGA18 := 7 8 9 10 11 13;
set OMEGA19 := 7 8 9 10 11 12 13;
set OMEGA20 := 11 12 13;
set OMEGA21 := 11 12 13;
set OMEGA22 := 11 12 13;
set OMEGA23 := 11 12 13;
set OMEGA24 := 11 12 13;
set AFTER   := 7 8 9 10;
set NIGHT   := 11 12 13;
set SEN_AFTER := 1 2 3 4 5 7 8 9 10 12;

set AMA := 2 3 4 10 13 17 19 20 22 31;
set MANA := 13 17 22;
set EXP1 := 1 2 3 4 5 6 7 8 9 10 11 12 13 14 15 16 17 18 19 20 21 22 23 24 25 26 27 28 29 30 31 32 33 35 36 37 38 40;
set EXP2 := 1 2 3 4 5 6 7 8 9 10 11 12 13 14 15 16 17 18 19 20 22 23 24 25 26 27 28 29 30 31 32 35 36 37 38 40;

set MON := 1 8 15 22 29;
set WED := 3 10 17 24 31;
set THU := 4 11 18 25;
set FRI := 5 12 19 26;
